WARNING: for repeatability, setting FPU to use double precision
============================[ Problem Statistics ]=============================
|                                                                             |
|  Number of variables:            50                                         |
|  Number of clauses:             218                                         |
|  Parse time:                   0.00 s                                       |
|                                                                             |
============================[ Search Statistics ]==============================
| Conflicts |          ORIGINAL         |          LEARNT          | Progress |
|           |    Vars  Clauses Literals |    Limit  Clauses Lit/Cl |          |
===============================================================================
===============================================================================
restarts              : 1
conflicts             : 76             (330435 /sec)
decisions             : 90             (0.00 % random) (391304 /sec)
propagations          : 988            (4295652 /sec)
conflict literals     : 280            (15.15 % deleted)
Memory used           : 20.00 MB
CPU time              : 0.00023 s

UNSATISFIABLE
